original problem has 2013 variables (1464 bin, 183 int, 0 impl, 366 cont) and 233 constraints
1/1 feasible solution given by solution candidate storage, new primal bound 3.311180e+03

presolving:
(round 1, fast)       0 del vars, 0 del conss, 0 add conss, 366 chg bounds, 0 chg sides, 0 chg coeffs, 0 upgd conss, 0 impls, 0 clqs
   (0.0s) running MILP presolver
   (0.0s) MILP presolver found nothing
   (0.0s) probing: 51/1464 (3.5%) - 0 fixings, 0 aggregations, 0 implications, 0 bound changes
   (0.0s) probing aborted: 50/50 successive totally useless probings
presolving (2 rounds: 2 fast, 1 medium, 1 exhaustive):
 0 deleted vars, 0 deleted constraints, 0 added constraints, 366 tightened bounds, 0 added holes, 0 changed sides, 0 changed coefficients
 0 implications, 0 cliques
presolved problem has 2013 variables (1464 bin, 183 int, 0 impl, 366 cont) and 233 constraints
    233 constraints of type <linear>
Presolving Time: 0.01
transformed 1/1 original solutions to the transformed problem space

 time | node  | left  |LP iter|LP it/n|mem/heur|mdpt |vars |cons |rows |cuts |sepa|confs|strbr|  dualbound   | primalbound  |  gap   | compl. 
  0.0s|     1 |     0 |   270 |     - |  7886k |   0 |2013 | 233 | 233 |   0 |  0 |   0 |   0 | 2.879066e+03 | 3.311180e+03 |  15.01%| unknown
  0.0s|     1 |     2 |   270 |     - |  7886k |   0 |2013 | 233 | 233 |   0 |  1 |   0 |   0 | 2.879066e+03 | 3.311180e+03 |  15.01%| unknown

SCIP Status        : solving was interrupted [node limit reached]
Solving Time (sec) : 0.02
Solving Nodes      : 1
Primal Bound       : +3.31117998412251e+03 (1 solutions)
Dual Bound         : +2.87906568685367e+03
Gap                : 15.01 %
wrote problem to file /mnt/lscratch/users/dferrario/Adaptive-Cutsel-MILP/TransformedInstances/50v-10__trans__seed__1.mps
